
Gurobi 9.5.2 (mac64[arm]) logging started Fri Apr 28 14:08:32 2023

Set parameter LogFile to value "Java/output/pure_mip_2_machine/scenario_seed_1_nJob_40_machineCount_2/mip_increment_5/log.txt"
Gurobi Optimizer version 9.5.2 build v9.5.2rc0 (mac64[arm])
Thread count: 8 physical cores, 8 logical processors, using up to 8 threads
Optimize a model with 612 rows, 8296 columns and 34155 nonzeros
Model fingerprint: 0xc6d42866
Variable types: 0 continuous, 8296 integer (8296 binary)
Coefficient statistics:
  Matrix range     [1e+00, 2e+02]
  Objective range  [2e+00, 3e+06]
  Bounds range     [1e+00, 1e+00]
  RHS range        [1e+00, 1e+00]
Presolve added 2 rows and 0 columns
Presolve removed 0 rows and 997 columns
Presolve time: 0.04s
Presolved: 614 rows, 7299 columns, 28987 nonzeros
Variable types: 0 continuous, 7299 integer (7281 binary)

Root relaxation: objective 1.119632e+04, 4042 iterations, 0.12 seconds (0.18 work units)

    Nodes    |    Current Node    |     Objective Bounds      |     Work
 Expl Unexpl |  Obj  Depth IntInf | Incumbent    BestBd   Gap | It/Node Time

     0     0 11196.3229    0  244          - 11196.3229      -     -    0s
     0     0 11563.4626    0  391          - 11563.4626      -     -    0s
     0     0 11565.7340    0  377          - 11565.7340      -     -    0s
     0     0 11565.7389    0  381          - 11565.7389      -     -    0s
     0     0 11619.4573    0  383          - 11619.4573      -     -    0s
     0     0 11619.4677    0  392          - 11619.4677      -     -    0s
     0     0 11654.9870    0  417          - 11654.9870      -     -    0s
     0     0 11659.8357    0  402          - 11659.8357      -     -    0s
     0     0 11660.0438    0  402          - 11660.0438      -     -    0s
     0     0 11785.0455    0  402          - 11785.0455      -     -    0s
     0     0 11785.9117    0  417          - 11785.9117      -     -    0s
     0     0 11788.3703    0  409          - 11788.3703      -     -    1s
     0     0 11788.4412    0  411          - 11788.4412      -     -    1s
     0     0 11928.6107    0  387          - 11928.6107      -     -    1s
     0     0 11948.3501    0  391          - 11948.3501      -     -    1s
     0     0 11949.8543    0  391          - 11949.8543      -     -    1s
     0     0 11949.8548    0  393          - 11949.8548      -     -    1s
H    0     0                    871954.00000 11999.2581  98.6%     -    1s
     0     0 11999.2581    0  359 871954.000 11999.2581  98.6%     -    1s
H    0     0                    674530.00000 11999.2581  98.2%     -    1s
     0     0 12004.0624    0  379 674530.000 12004.0624  98.2%     -    1s
     0     0 12004.1686    0  390 674530.000 12004.1686  98.2%     -    1s
     0     0 12012.2200    0  435 674530.000 12012.2200  98.2%     -    1s
H    0     0                    669700.00000 12012.2200  98.2%     -    1s
     0     0 12013.0064    0  391 669700.000 12013.0064  98.2%     -    1s
     0     0 12013.0399    0  396 669700.000 12013.0399  98.2%     -    1s
     0     0 12014.5382    0  454 669700.000 12014.5382  98.2%     -    1s
     0     0 12014.5382    0  441 669700.000 12014.5382  98.2%     -    2s
H    0     0                    12364.000000 12014.5382  2.83%     -    2s
     0     0 12015.1008    0  195 12364.0000 12015.1008  2.82%     -    2s
H    0     0                    12354.000000 12015.1008  2.74%     -    2s
     0     0 12015.1008    0  354 12354.0000 12015.1008  2.74%     -    2s
H    0     0                    12342.000000 12015.1008  2.65%     -    2s
     0     0 12023.8810    0  321 12342.0000 12023.8810  2.58%     -    2s
     0     0 12027.4321    0  354 12342.0000 12027.4321  2.55%     -    2s
     0     0 12028.9701    0  336 12342.0000 12028.9701  2.54%     -    2s
     0     0 12028.9711    0  340 12342.0000 12028.9711  2.54%     -    2s
     0     0 12030.5894    0  368 12342.0000 12030.5894  2.52%     -    2s
     0     0 12030.6040    0  379 12342.0000 12030.6040  2.52%     -    2s
     0     0 12032.1626    0  381 12342.0000 12032.1626  2.51%     -    2s
H    0     0                    12337.000000 12032.1626  2.47%     -    2s
     0     0 12032.6732    0  392 12337.0000 12032.6732  2.47%     -    2s
     0     0 12032.7043    0  393 12337.0000 12032.7043  2.47%     -    2s
H    0     0                    12312.000000 12032.7043  2.27%     -    2s
     0     0 12034.0424    0  388 12312.0000 12034.0424  2.26%     -    2s
H    0     0                    12307.000000 12034.0424  2.22%     -    2s
     0     0 12034.3722    0  385 12307.0000 12034.3722  2.22%     -    2s
     0     0 12034.3934    0  382 12307.0000 12034.3934  2.22%     -    2s
     0     0 12037.5765    0  378 12307.0000 12037.5765  2.19%     -    2s
     0     0 12037.6474    0  387 12307.0000 12037.6474  2.19%     -    2s
     0     0 12037.6563    0  403 12307.0000 12037.6563  2.19%     -    2s
     0     0 12038.2018    0  383 12307.0000 12038.2018  2.18%     -    2s
     0     0 12038.2018    0  358 12307.0000 12038.2018  2.18%     -    2s
H    0     0                    12302.000000 12038.4550  2.14%     -    2s
H    0     2                    12290.000000 12038.4550  2.05%     -    3s
     0     2 12038.4550    0  350 12290.0000 12038.4550  2.05%     -    3s
H   34    34                    12285.000000 12053.0019  1.89%   509    3s
H   64    69                    12204.000000 12053.0090  1.24%   404    3s
H   71    69                    12165.000000 12053.0293  0.92%   401    3s
H  101   104                    12160.000000 12053.9308  0.87%   382    3s
H  104   104                    12155.000000 12053.9308  0.83%   381    3s
H  139   139                    12149.000000 12053.9308  0.78%   336    3s
H  143   139                    12145.000000 12053.9308  0.75%   335    3s
H  207   181                    12138.000000 12053.9308  0.69%   309    4s
H  280   259                    12114.000000 12053.9308  0.50%   286    4s
H  402   335                    12093.000000 12053.9308  0.32%   250    4s
H  468   361                    12088.000000 12053.9308  0.28%   234    4s
   626   413 12066.1190   11  280 12088.0000 12056.7123  0.26%   216    5s
  3915  1140 12085.5903   24  120 12088.0000 12072.2600  0.13%   178   10s
  4721  1328 12081.2207   22  323 12088.0000 12072.9465  0.12%   177   15s

Cutting planes:
  Gomory: 4
  Cover: 5
  Clique: 40
  MIR: 142
  StrongCG: 22
  Flow cover: 104
  GUB cover: 65
  Inf proof: 1
  Zero half: 41
  RLT: 1
  Relax-and-lift: 3

Explored 5851 nodes (1001568 simplex iterations) in 17.09 seconds (34.64 work units)
Thread count was 8 (of 8 available processors)

Solution count 10: 12088 12088 12093 ... 12155

Optimal solution found (tolerance 1.00e-04)
Best objective 1.208800000000e+04, best bound 1.208800000000e+04, gap 0.0000%
